(set-logic QF_BV)
(declare-fun _substvar_238_ () (_ BitVec 16))
(declare-fun _substvar_442_ () (_ BitVec 8))
(declare-fun _substvar_431_ () (_ BitVec 32))
(declare-fun _substvar_450_ () (_ BitVec 16))
(declare-fun _substvar_454_ () (_ BitVec 8))
(assert (let ( (?v_7 ((_ zero_extend 16) _substvar_238_)) (?v_4 ((_ zero_extend 24) _substvar_442_)) (?v_1 ((_ zero_extend 24) _substvar_454_))) (let ((?v_0 (bvadd ?v_1 (_ bv1 32)))) (let ((?v_2 (bvadd (bvadd ?v_0 (_ bv4269308 32)) ((_ zero_extend 16) _substvar_450_)))) (let ((?v_5 (bvadd ?v_2 (_ bv6 32)))) (let ((?v_16 (bvadd (bvadd ?v_5 (bvadd ?v_4 (_ bv1 32))) (_ bv2 32)))) (let ((?v_15 (bvadd ?v_16 (_ bv0 32)))) (let ((?v_19 (bvadd ?v_15 (_ bv6 32)))) (let ((?v_22 (bvadd ?v_19 (_ bv0 32)))) (let ((?v_3 (bvadd ?v_22 (_ bv2 32)))) (let ((?v_24 (bvadd ?v_3 ?v_7))) (let ((?v_26 (bvadd ?v_24 (_ bv6 32)))) (let ((?v_27 (bvadd ?v_26 (_ bv0 32)))) (let ((?v_23 (bvadd ?v_7 (bvsub (_ bv4294967295 32) _substvar_431_))) (?v_21 (bvadd ?v_3 _substvar_431_))) (let ((?v_20 (bvadd ?v_23 (_ bv0 32)))) (let ((?v_17 (bvadd ?v_20 (_ bv0 32)))) (let ((?v_13 (bvadd ?v_17 (_ bv0 32)))) (and true true true true (bvsle (_ bv1040 32) (bvsub ?v_27 (_ bv4269120 32))) true true true true true true true (= (bvadd ?v_13 (_ bv0 32)) (_ bv0 32)) true true true true true true true true true true true true (bvule (bvadd ?v_21 (_ bv2 32)) (_ bv4270134 32)) true true true true true true true true true true))))))))))))))))))
(check-sat)
(exit)
